100
32
23
17
4
10
9
17
15
1
10
8
1
13
3
11
20
26
24
1
8
12
12
16
8
20
18
2
2
1
1
2
20
2
3
3
10
2
21
1
27
3
18
3
18
6
2
1
17
2
6
2
18
4
6
2
10
2
19
2
8
1
6
7
8
10
1
21
1
8
5
1
9
8
10
11
1
8
12
22
1
19
3
8
10
14
9
9
4
18
12
19
2
6
1
2
6
6
6
6
3
1